NAME : tsp40_2.205.tour
COMMENT : Length = 205
COMMENT : Found by LKH [Keld Helsgaun]
TYPE : TOUR
DIMENSION : 40
TOUR_SECTION
1
6
4
27
18
14
40
13
26
32
16
15
29
7
35
17
5
33
31
34
20
9
10
8
23
38
11
24
2
19
22
12
25
28
21
36
3
30
39
37
-1
EOF
